Pt5(OH)2-C72
1.0
    12.782535    7.3800000   0.000000
   -12.782535    7.3800000   0.000000
     0.000000    0.0000000  20.000000 
   C    Pt   O   H
   72    5   2   2
Cartesian
       5.75717012    6.59139306    1.96814693     
       5.04576874    7.81814878    1.98577712     
       3.63718674    7.82082815    2.10101341     
       5.75566963    9.05787518    1.91611052     
       2.92156722    9.06030649    2.08193200     
       5.05291888   10.27639676    1.90646602     
       1.50588868    9.08065118    2.17694595     
       3.62424318   10.28187372    1.95910778     
      -7.02334883    4.13392085    1.87355134     
       2.91744722   11.51031932    1.92563532     
       0.79654563   10.28964925    2.06191287     
      -7.73059997    5.36218620    1.87872738     
      -0.63637202   10.29560215    2.10979407     
      -9.15678651    5.36646626    1.89279035     
      -7.02497867    6.59244202    1.89226968     
       1.50094245   11.51497878    1.95280946     
      -7.73400343    7.81986633    1.92428103     
      -1.34379497   11.51095415    2.01052782     
       0.78878759   12.74653617    1.93039235     
      -9.86075200    6.58690004    1.90958400     
      -0.63236841   12.75077295    1.94832522     
      -2.76293171   11.51687101    1.99773995     
     -11.28586079    6.59105371    1.92166557     
      -9.15185250    7.82446280    1.93798866     
      -7.02491017    9.05697238    1.95149974     
      -1.33829026   13.96896158    1.92512936     
      -3.47017972   12.74305812    1.94386739     
     -11.99691640    7.81878546    1.95055803     
      -7.72697194   10.27738326    1.98954939     
      -9.86029630    9.05062718    2.00526713     
       1.49789160    1.67364548    2.01671057     
      10.01734044    6.59293970    1.91880344     
       7.88580589    5.36747665    1.93909373     
      -0.62715808    0.44473308    1.93690536     
       3.62594081    2.90129649    2.04606378     
       5.76261221    4.13086989    1.98123344     
       2.92569742    4.12157313    2.15327847     
       5.05186728    5.36307677    2.00921210     
       7.18096362    6.58711091    1.92328263     
       9.30893619    7.82047244    1.89435621     
      -1.33755545    1.67682096    1.94967166     
       0.79206509    2.88747704    2.09814483     
      -0.63393871    2.89765762    2.03000129     
       7.89010290    7.82452101    1.89496866     
      -2.76484973    1.67948960    1.90514561     
       1.50621482    4.11535984    2.23978604     
       3.63826401    5.36525391    2.11983140     
       7.18072983    9.05174340    1.88258526     
      -1.34819829    4.13065590    2.04524193     
       0.78130152    5.34190040    2.38170989     
       2.94509926    6.58513130    2.22115061     
      -3.46931704    2.89704912    1.89895698     
       1.52751316    6.58106568    2.48136636     
      -4.89647650    2.90270417    1.87373850     
      -2.76291958    4.13396562    1.95333244     
      -0.65507417    5.35947008    2.18014551     
       0.79045019    7.85841745    2.45542196     
      -5.60407218    4.12869576    1.87090564     
      -3.47158941    5.36116883    1.95085757     
      -1.35707828    6.57286996    2.16539309     
      -2.76618066    6.58798500    2.03507274     
      -0.65351197    7.82770162    2.34251621     
      -4.89584879    5.36769191    1.89714543     
      -5.59813741    6.58705538    1.90694928     
      -3.47778915    7.82355166    2.02611342     
      -1.35233971    9.06917029    2.21284460     
      -4.88695052    7.82443054    1.95624565     
      -2.77563502    9.06338026    2.08951315     
      -5.59955072    9.05535121    1.95801387     
      -3.47265432   10.28194343    2.01964897     
      -4.89842839   10.28192105    1.97414447     
      -5.60610313   11.51182052    1.95973350     
       1.15649515    5.80909952    4.46822580     
       1.62664795    7.59609967    6.38826097     
       0.27634338    5.52649915    6.90777362     
      -0.82121487    7.79426879    6.90823949     
      -0.09469309    8.05773243    4.41039756     
      -0.35485910    3.79030990    7.43759946     
      -2.56080559    8.54257025    7.25289814     
      -2.65179696    8.72788134    8.21053073     
      -0.84614061    3.35941624    6.70920528     
