Pt5O2-C72
1.0
    12.782535    7.3800000   0.000000
   -12.782535    7.3800000   0.000000
     0.000000    0.0000000  20.000000 
   C    Pt   O
   72    5   2
Cartesian
       7.81099160    5.27507250    1.86240191     
       7.10519708    6.50026725    1.85100564     
       5.67918531    6.49849041    1.89039660     
       7.81680806    7.72999345    1.84356274     
       4.96634626    7.73671867    1.94281590     
       7.10422514    8.96746008    1.84023134     
       3.56385009    7.73837464    2.09053504     
       5.67915022    8.96735825    1.88272137     
       7.80760483   10.18744442    1.84438135     
       4.97575449   10.19062114    1.89729858     
       2.87144192    8.97660800    2.18993711     
      -5.68530130    4.04216780    1.84145214     
       1.45884315    8.99262765    2.49371029     
       5.68768586   11.42556524    1.85065969     
      -4.97323256    5.27760197    1.88158586     
       3.56084367   10.19164880    2.02939946     
      -5.67599221    6.50095281    1.87559693     
       0.71536459   10.22219915    2.40551713     
       2.84715580   11.43481800    2.05059714     
      -7.80445587    5.28063297    1.86300681     
       1.43835565   11.44574054    2.17916501     
      -0.73257232   10.19896836    2.24265965     
       3.55114659   12.66131787    1.92803048     
      -7.10091791    6.50100141    1.84800364     
      -4.96282504    7.73178169    1.93069936     
       0.71684823   12.67114863    2.05536357     
      -1.42522456   11.42277666    2.06894851     
      -9.93597465    6.50598819    1.92113148     
      -5.67566263    8.97064732    1.88507174     
      -7.81338793    7.73800217    1.85247574     
      -9.22617570    7.73683443    1.87582643     
      -0.70851680   12.66004634    2.02326928     
      -2.83547072   11.42022671    1.97646259     
       1.42205323   13.88543920    1.96256819     
      -7.10143852    8.96868200    1.85214023     
      -4.97156299   10.18782873    1.90140262     
      -7.80682431   10.19404580    1.86353210     
      -5.68206011   11.42488450    1.86556245     
      -3.54565801   12.65630226    1.89641490     
      -1.41328542   13.87445673    1.93702926     
     -12.07647093    7.73874737    1.93330248     
      -9.93781770    8.97448069    1.89620625     
       1.41788126    1.59449664    1.93286218     
       9.94192388    6.49441459    1.89200078     
      12.08063581    7.72958114    1.92723343     
       3.54939908    2.81241293    1.89608975     
       5.68562790    4.04392928    1.86625135     
       9.23002130    7.73051804    1.86093600     
       0.71328127    2.80976294    2.00039749     
       2.83928983    4.04867305    1.97240128     
       4.97499393    5.28154357    1.90619664     
      -1.41826949    1.58361662    1.93372337     
       3.54852856    5.27991505    1.99239031     
       9.94051449    8.96287429    1.89195231     
      -0.71339986    2.79938290    2.01591136     
       1.42876402    4.04582531    2.05147725     
       2.84711622    6.49798842    2.12604699     
      -3.54684514    2.80718622    1.89353204     
      -1.43384021    4.02285595    2.12685254     
       0.73428633    5.27014639    2.22378379     
      -0.71221152    5.24674344    2.36946312     
       1.43613471    6.48004198    2.28632179     
      -2.84135924    4.03334200    2.00643738     
      -3.55737685    5.27618756    1.99962319     
      -1.45635954    6.47403205    2.45883989     
       0.72365051    7.71694321    2.56129060     
      -2.86879239    6.49041396    2.16147223     
      -0.72642929    7.74439292    2.54556382     
      -3.56069215    7.72986346    2.07063987     
      -1.43414130    8.98787070    2.28252229     
      -2.84362985    8.97061554    2.11297669     
      -3.54463423   10.18966693    1.98720271     
      -0.68401526    6.50330025    7.52034289     
       0.42350315    8.49564063    6.90601504     
       1.28463659    9.96377101    4.48741954     
      -0.02063733    7.76593200    4.56805604     
      -1.27366036    5.53737380    4.45964583     
      -1.42914387    5.23808826    6.34815770     
       1.36535882   10.10270992    6.46089022     
