Pt5OOH-C72
1.0
    12.782535    7.3800000   0.000000
   -12.782535    7.3800000   0.000000
     0.000000    0.0000000  20.000000 
   C    Pt   O   H
   72    5   2   1
Cartesian
      -2.90343208    9.02598560    1.92224394     
      -3.61166143    7.79030898    1.85513550     
      -2.90006506    6.55517772    1.89591652     
      -5.02019882    7.79145751    1.80790422     
      -3.60737088    5.33001264    1.85459142     
      -5.73289468    6.55865748    1.78733144     
      -2.89678765    4.10044444    1.91163414     
      -5.02999801    5.33481300    1.80043721     
      -7.16157465    6.56277618    1.79059486     
      -5.74167387    4.09805756    1.80523749     
      -3.60722983    2.86507323    1.89618824     
      -7.86698545    5.33589047    1.79607488     
       9.88172578    9.02661693    1.95501777     
       5.62574036   11.48195947    1.80189062     
       3.49242621   12.71896549    1.83275967     
       7.74882812   10.25024455    1.84824214     
       2.78033661   11.48332080    1.87570225     
       9.17046639    7.78907069    1.96269626     
       7.04313123    9.02326540    1.87239528     
       4.91678815   10.24953994    1.84797130     
       7.75587002    7.79234697    1.91959891     
       9.87781369    6.56325821    2.02597063     
       5.62132537    9.02576830    1.87834705     
       3.48997810   10.25112950    1.89420059     
       1.37164214   11.48905834    1.95315555     
       7.04453245    6.56096768    1.92906209     
       9.17052504    5.33805006    2.01370505     
       4.90918122    7.78976183    1.94987079     
       0.67584368   10.26205316    2.05287973     
       2.78954758    9.03113612    2.01059704     
       3.50284867    7.78825433    2.05110614     
       7.74915224    5.33688188    1.94473737     
      -2.91083022   11.48459728    2.07180621     
       5.61980360    6.56045645    1.94760360     
       1.37893707    9.04766823    2.09850931     
      -0.76817776   10.25286363    2.21544449     
       0.65162615    7.82497252    2.35759331     
      -1.49876648    9.01893817    2.05762214     
      -3.60779204   10.25793352    1.93619206     
       7.03957419    4.10271852    1.91160642     
       4.91578994    5.33544174    1.97723595     
       2.81041343    6.55944217    2.18757910     
       3.50055296    5.33578479    2.08884422     
      -5.03159141   10.25334464    1.87625516     
       5.62789056    4.10034033    1.92790715     
       1.38179043    6.55436995    2.43905960     
      -0.78516353    7.78833845    2.19667214     
      -5.73465444    9.02812543    1.82791947     
       2.78672468    4.09374041    2.10962010     
       0.64204051    5.31245303    2.34173267     
      -1.48998886    6.53937041    2.04584782     
       4.91971521    2.87072693    1.91529306     
      -0.78925611    5.32542523    2.11990361     
      -7.15777782    9.02831705    1.84736136     
       3.49035983    2.87246549    1.99025275     
       1.37315835    4.08603542    2.20071334     
      -1.48671187    4.09754801    2.01808730     
      -7.87084448    7.79116126    1.82893162     
       2.78636196    1.64493957    1.96134173     
       0.65620736    2.86151069    2.09539198     
       1.36482159    1.64403225    2.01200995     
      -0.77097814    2.86538256    2.04828346     
      -9.28476230    7.79441287    1.87617142     
      -9.99574130    6.56150428    1.87034610     
       0.64863942    0.41197588    1.98765108     
      -1.47537326    1.64826933    2.00419703     
       1.36015331   13.94193499    1.93905194     
      12.02219330    7.79504685    2.01516286     
       0.65519057   12.72535379    1.99139123     
      11.30843713    6.56450613    2.05385704     
      -0.76269302   12.73262672    2.10667138     
      -1.49045627   11.49501136    2.23021832     
      -0.20206958    8.15803078    4.35217873     
      -0.78675693    9.22542570    6.53259359     
       0.88865726    7.28131918    6.60145511     
      -0.95131397   10.57230013    4.33587576     
       0.98757731    5.90879015    4.43688913     
       1.84881130    6.50032932    8.00917596     
       1.26355192    5.36104183    8.75997141     
       0.37370358    5.29253266    8.34681004     
