Pt5OH-C72
1.0
    12.782535    7.3800000   0.000000
   -12.782535    7.3800000   0.000000
     0.000000    0.0000000  20.000000 
   C    Pt   O   H
   72    5   1   1
Cartesian
       1.42535619    9.07867669    2.23416271     
       0.72146329   10.29055438    2.17078175     
       1.41889376   11.51377708    2.00697948     
      -0.72068665   10.31316132    2.31448837     
       0.70208318   12.75092322    1.96723852     
      -1.44571982   11.53625863    2.10699739     
     -11.37509388    6.58546771    1.90018691     
      -0.72346860   12.76166177    1.99702503     
      -2.85311337   11.52518863    1.99331113     
      11.35325992    6.59689621    1.92036809     
       0.69456628    0.44076940    1.90905509     
       9.22399435    5.37381803    1.88710068     
       1.41179496    1.67378792    1.94127822     
       9.92906299    6.59638106    1.88389486     
       7.79712508    5.37218771    1.83448806     
      -0.71215834    0.44892257    1.91064829     
       7.09390215    6.59281815    1.82683464     
       0.70644077    2.88825184    2.04475271     
      -1.42437467    1.68533245    1.92518934     
       9.21848057    7.82906983    1.84889954     
      -0.71965791    2.89771141    2.01449861     
       1.42980442    4.10916337    2.17139946     
      -2.85142780    1.68440509    1.87706654     
       7.80682752    7.82877059    1.82778854     
       5.66867077    6.59152174    1.86624471     
      -1.43631981    4.13602179    2.05364525     
       0.70479615    5.33445227    2.42027644     
      -3.55617004    2.90368135    1.87433598     
       4.95531540    7.82327725    1.91670408     
       7.09433238    9.06040061    1.82681973     
      -4.98217321    2.90425609    1.83535141     
      -0.74271038    5.35856119    2.22568277     
       1.45301482    6.56609955    2.48258209     
      -2.84513727    4.13796652    1.95183237     
       5.66871221    9.06135348    1.86095266     
       3.55386924    7.82120672    2.05953194     
       4.96389148   10.27914785    1.87025708     
       2.83636018    9.06286652    2.08359084     
       0.71398171    7.84395323    2.51033825     
      -1.44299420    6.57132237    2.24293539     
      -3.55514561    5.37013666    1.95310016     
      -5.69379411    4.13487370    1.83330892     
      -4.98171738    5.37165018    1.86641294     
      -0.73627025    7.81347311    2.49379119     
      -2.85380587    6.58825648    2.07066370     
      -7.10654442    4.13527966    1.83098956     
       3.53827552   10.27982753    1.95023719     
      -1.46956044    9.08863785    2.41279865     
      -5.68573667    6.58932793    1.84830154     
      -7.81715714    5.36682226    1.82626750     
       2.82791564   11.51175414    1.92884415     
      -3.57052898    7.82911788    2.02658583     
      -9.24350632    5.36709110    1.85670513     
      -2.87734078    9.06985470    2.11817704     
      -4.97229600    7.82690095    1.89291451     
      -7.11153280    6.59031482    1.81629147     
      -9.94854753    6.58613860    1.85976004     
      -3.56889523   10.28459955    1.97005329     
      -5.68677685    9.05898969    1.84502333     
      -7.82472591    7.82156267    1.82056311     
      -7.11148198    9.05837815    1.82093112     
      -9.23579917    7.82128159    1.84417686     
      -4.98393858   10.28175128    1.85712008     
       7.08554731    4.13735945    1.82641127     
       4.96679482    2.89887126    1.84342338     
       2.83565519    1.67428833    1.89674533     
       5.67800036    4.13317362    1.83659484     
       3.54100066    2.89691002    1.91029887     
       4.96590801    5.36865502    1.88569134     
       2.83358603    4.12383672    2.04171371     
       3.55098695    5.36724036    2.02012849     
       2.86406004    6.58271549    2.17124888     
      -0.03683078    7.82137294    4.51119173     
      -1.21090120    9.70525743    6.92358677     
       0.09707853    7.62832994    6.95082223     
      -1.22975849   10.02290045    4.44554239     
       1.23479645    5.66614404    4.47316133     
       1.23324619    5.85540358    6.55410190     
       0.83477602    5.07525353    6.98499975     
