Pt5O2-C72
1.0
    12.782535    7.3800000   0.000000
   -12.782535    7.3800000   0.000000
     0.000000    0.0000000  20.000000 
   C    Pt   O
   72    5   2
Cartesian
       7.84667776    5.31625235    1.91608222     
       7.14241863    6.53697135    1.87834694     
       5.71848652    6.54328259    1.89764444     
       7.85012314    7.77691621    1.84109958     
       5.00532527    7.77050150    1.89015482     
       7.14134931    8.99966322    1.80586588     
       3.59461477    7.77576371    1.98540715     
       5.71590794    9.00892863    1.82290273     
      -4.93377010    2.85756380    1.78645738     
       5.01031802   10.22797660    1.80203980     
       2.87756564    9.00807071    1.97166948     
      -5.64013231    4.08119209    1.77490023     
       1.46937229    9.02592460    2.12132165     
      -7.06363504    4.08843472    1.77079084     
      -4.93279234    5.32044437    1.80561537     
       3.58489321   10.23651772    1.85490212     
      -5.63836683    6.53962598    1.81503083     
       0.75238830   10.23617207    2.06290251     
       2.87721471   11.46132278    1.84252105     
      -7.77033661    5.31037676    1.77397951     
       1.45884749   11.46813362    1.91444572     
      -0.66852257   10.25612689    2.17652918     
      -9.19715092    5.31807660    1.79421001     
      -7.06304122    6.54794555    1.78982078     
      -4.92819692    7.77885598    1.88458084     
       0.75024478   12.69254788    1.88775860     
      -1.37615895   11.46042187    2.05175249     
      -9.90271311    6.53869060    1.80418281     
      -5.64024731    9.00258301    1.89454174     
      -7.77248132    7.77133900    1.81566350     
      -9.19344026    7.77988381    1.81373506     
      -0.67126179   12.69908948    1.93400299     
      -2.80410543   11.47117267    2.03345550     
     -11.32506581    6.54571178    1.83084468     
      -7.06572308    9.00881328    1.85816866     
      -4.93745487   10.23527771    1.94210319     
      -7.76990373   10.22952539    1.88695003     
      -5.64300744   11.46240905    1.91724274     
      -3.50614890   12.68615973    1.94688263     
      -1.37938865   13.91718459    1.88233765     
     -12.03553301    7.77053460    1.83227603     
      -9.90192955    9.00089015    1.85209889     
       1.45604828    1.62821525    1.85010366     
       9.98013056    6.54570572    1.89287372     
      -0.67019827    0.39616301    1.84064031     
       3.58574321    2.85888501    1.89898502     
       5.72135309    4.08566482    1.90449325     
       9.27073618    7.76749774    1.84385254     
       0.74836351    2.84586010    1.89323634     
       2.88217836    4.07805365    1.97505257     
       5.01644458    5.31069042    1.92730939     
      -1.38041545    1.62054171    1.83319257     
       3.59347721    5.31369555    2.00020413     
      -2.80313219    1.62795553    1.82061515     
      -0.67270773    2.85411605    1.86800230     
       1.45560433    4.08543819    1.98924848     
       2.90117451    6.53357082    2.09728658     
      -3.50856396    2.84942126    1.80584181     
      -1.38202680    4.07995999    1.90166476     
       0.74671452    5.28899310    2.11151593     
      -0.67661489    5.31111093    2.03894431     
       1.47051062    6.52411317    2.29179645     
      -2.79995980    4.08771161    1.84798911     
      -3.50608961    5.31390590    1.86495179     
      -1.39015710    6.52210914    2.13360955     
       0.77334266    7.78053773    2.38966336     
      -2.80082877    6.54199356    1.98868026     
      -0.69114593    7.76115079    2.41621990     
      -3.51552776    7.77563345    1.99317336     
      -1.39650825    9.01780939    2.38627454     
      -2.82697768    9.01101592    2.12974384     
      -3.51603855   10.23035838    2.03476703     
       0.65220989    7.35238340    6.95355440     
      -1.10536364    8.32573039    4.45387936     
       1.29335136    7.17373954    4.38949719     
      -3.25555960    9.34926786    5.38336058     
      -1.69661864    8.49105837    6.99273326     
       2.18875007    6.73888713    6.09884199     
      -0.53375688    7.79598485    8.34348234     
