Pt5-C72
1.0
    12.782535    7.3800000   0.000000
   -12.782535    7.3800000   0.000000
     0.000000    0.0000000  20.000000 
   C    Pt
   72    5
Cartesian
       3.44525000   12.39770000    2.03231000     
     -10.04744000    6.25407000    2.09546000     
      -9.33894000    7.48114000    2.06844000     
       1.32051000   13.63822000    2.14802000     
     -10.04734000    8.70980000    2.03152000     
     -12.17479000    7.48013000    2.06230000     
       3.44937000    2.56020000    1.98575000     
       1.31547000    1.32441000    2.00192000     
      11.95883000    7.48134000    2.00301000     
       0.60339000    2.56060000    1.91260000     
       2.73567000    3.79066000    1.89684000     
      -1.52973000    1.33267000    1.90450000     
       3.44668000    5.01653000    1.84386000     
      -0.81546000    2.55857000    1.87661000     
       9.83479000    8.70978000    1.85198000     
       1.31666000    3.78411000    1.86620000     
      -3.66075000    2.56375000    1.82112000     
       2.73476000    6.25182000    1.79166000     
       0.60332000    5.01873000    1.81056000     
      -1.52833000    3.78994000    1.82917000     
       1.31442000    6.24585000    1.78782000     
       3.44350000    7.47770000    1.78353000     
      -0.81397000    5.01627000    1.81047000     
      -2.94641000    3.79012000    1.82692000     
       7.70451000    9.94145000    1.81658000     
       0.60532000    7.47719000    1.79969000     
       2.73562000    8.71105000    1.81191000     
      -1.52705000    6.25056000    1.82688000     
      -5.79155000    3.79633000    1.86134000     
      -3.65946000    5.02182000    1.85840000     
      -2.94514000    6.24781000    1.87558000     
       1.31509000    8.70570000    1.82646000     
       3.44329000    9.93621000    1.86840000     
      -0.81194000    7.47462000    1.83919000     
      -5.07829000    5.01999000    1.89650000     
       5.57205000   11.17010000    1.89317000     
      -5.79034000    6.25639000    1.98031000     
      -7.92415000    5.02065000    1.98183000     
       2.72980000   11.16730000    1.97689000     
       0.60723000    9.93135000    1.93961000     
      -1.51758000    8.70481000    1.94725000     
      -3.65125000    7.47939000    1.96952000     
      -2.93494000    8.68462000    2.02592000     
       1.32302000   11.15790000    2.04194000     
      -0.80572000    9.92188000    2.03539000     
      -5.08239000    7.48054000    2.03299000     
      -7.20988000    6.25113000    2.01975000     
       0.61448000   12.39550000    2.21417000     
      -3.65213000    9.92157000    2.18270000     
      -5.79466000    8.70199000    2.12454000     
      -7.91817000    7.47961000    2.06106000     
      -1.50821000   11.16048000    2.28148000     
      -7.20948000    8.70653000    2.08200000     
      -0.82203000   12.41754000    2.20084000     
      -2.96566000   11.17722000    2.28207000     
      -5.08847000    9.94366000    2.19807000     
      -7.91975000    9.94296000    2.02706000     
      -1.53971000   13.65576000    2.05614000     
      -3.66876000   12.41814000    2.05179000     
      -5.79741000   11.18231000    2.03905000     
       7.70110000    5.02935000    1.95057000     
       5.57838000    3.79333000    1.97354000     
       9.82548000    6.25591000    1.97540000     
       9.11978000    7.48598000    1.86650000     
       6.99305000    6.25509000    1.84020000     
       4.86470000    5.02451000    1.86913000     
       7.70278000    7.48342000    1.81903000     
       5.57257000    6.24963000    1.81732000     
       6.99353000    8.71447000    1.79901000     
       4.86459000    7.48291000    1.78655000     
       5.57317000    8.70868000    1.79604000     
       4.86119000    9.94409000    1.84407000     
      -0.65249000   11.77551000    4.21342000     
       0.06325000   11.83523000    6.60094000     
      -4.50528000   10.38537000    6.59609000     
      -3.81041000   10.52483000    4.20626000     
      -2.22293000   11.11788000    6.22179000     
