Pt5(OOH)2-C72
1.0
    12.782535    7.3800000   0.000000
   -12.782535    7.3800000   0.000000
     0.000000    0.0000000  20.000000 
   C    Pt   O   H
   72    5   4   2
Cartesian
       3.50803000    5.49329000    1.91412000     
       2.79551000    6.73306000    1.88241000     
       1.38013000    6.75094000    1.97060000     
       3.49526000    7.95078000    1.77241000     
       0.68045000    7.96048000    1.92684000     
       2.78448000    9.18511000    1.75974000     
      -0.76203000    7.95460000    2.08944000     
       1.37664000    9.19037000    1.83368000     
       3.49445000   10.42032000    1.71889000     
       0.66106000   10.42472000    1.87183000     
      -1.48842000    9.19961000    2.05765000     
       2.78981000   11.63874000    1.75792000     
      -2.90392000    9.18904000    1.94215000     
       1.36477000   11.63995000    1.82463000     
      -9.28064000    5.49589000    1.75959000     
      -0.76234000   10.43333000    1.96578000     
      -9.99139000    6.72572000    1.84129000     
      -3.60715000   10.42139000    1.87935000     
      -1.47233000   11.64451000    1.91381000     
       0.65063000   12.87393000    1.86542000     
      -2.89900000   11.64251000    1.88322000     
      -5.03243000   10.42073000    1.81605000     
      -0.75636000   12.87850000    1.88416000     
     -11.41685000    6.72586000    1.88979000     
      -9.28802000    7.95012000    1.86533000     
       9.17252000    5.49518000    1.82463000     
       7.04797000    4.25994000    1.79672000     
      11.31264000    6.73099000    1.87556000     
       2.78608000    1.79749000    1.98220000     
       0.65925000    0.55991000    1.97036000     
      -0.76664000    0.56568000    1.92676000     
       7.76123000    5.49652000    1.78567000     
       5.62373000    4.26079000    1.81255000     
       9.88346000    6.72988000    1.82225000     
       1.37794000    1.78783000    2.07499000     
       3.50070000    3.04089000    1.94923000     
       0.64713000    3.01436000    2.23731000     
       2.81250000    4.26011000    2.04555000     
       4.91197000    5.49332000    1.81549000     
       7.04916000    6.72616000    1.74046000     
       9.17887000    7.94634000    1.76899000     
      -1.48416000    1.80238000    1.90292000     
      -2.89256000    1.80430000    1.79323000     
       5.62394000    6.72966000    1.74741000     
       7.75435000    7.95027000    1.71960000     
      -0.78865000    3.02836000    2.00983000     
       1.38879000    4.25689000    2.31172000     
       4.92127000    7.94814000    1.72270000     
      -3.60217000    3.03215000    1.73992000     
      -1.48684000    4.24035000    1.93812000     
       0.65269000    5.53141000    2.23362000     
       7.04349000    9.18181000    1.68029000     
      -0.78190000    5.49290000    2.07862000     
       5.63115000    9.18487000    1.67876000     
      -5.02830000    3.03753000    1.67939000     
      -2.89613000    4.25477000    1.78725000     
      -1.49495000    6.72098000    1.96444000     
       4.92089000   10.41685000    1.67760000     
      -5.73136000    4.25711000    1.66667000     
      -3.61107000    5.49263000    1.74549000     
      -5.01756000    5.49461000    1.69180000     
      -2.90733000    6.72844000    1.81686000     
      -7.15709000    4.26107000    1.67003000     
      -7.86990000    5.49392000    1.70906000     
      -5.73079000    6.72860000    1.71025000     
      -3.60880000    7.95244000    1.82314000     
      -7.15809000    6.73012000    1.72511000     
      -5.02859000    7.95192000    1.76084000     
      -7.86142000    7.94906000    1.79020000     
      -5.74280000    9.18650000    1.78856000     
      -7.15055000    9.18434000    1.79960000     
       4.91955000    3.03826000    1.84077000     
      -0.16629000    5.80497000    4.27772000     
      -0.75432000    7.04363000    6.45313000     
       0.86755000    5.07959000    6.49134000     
      -1.06895000    8.20072000    4.19410000     
       1.01720000    3.59710000    4.31721000     
      -1.21145000    7.55871000    8.21239000     
      -2.62582000    7.28752000    8.56182000     
       1.91512000    3.91633000    7.55157000     
       3.22918000    4.47880000    7.96660000     
       3.67299000    3.63954000    8.21756000     
      -2.48818000    6.74481000    9.36890000     
