Pt5OOH-C72
1.0
    12.782535    7.3800000   0.000000
   -12.782535    7.3800000   0.000000
     0.000000    0.0000000  20.000000 
   C    Pt   O   H
   72    5   2   1
Cartesian
      -2.87943107    9.00605195    2.07753021     
      -3.59138459    7.76185919    2.04582973     
      -2.89819471    6.54288926    2.15680142     
      -5.00460033    7.76494939    1.94270740     
      -3.58965216    5.30666670    2.05315265     
      -5.71008563    6.53582100    1.91374553     
      -2.87411261    4.06831100    2.05053485     
      -4.99927719    5.30950660    1.93919628     
      -7.13438434    6.54053947    1.87851432     
      -5.70928012    4.06949932    1.87961069     
      -3.57694937    2.84583775    1.93580350     
      -7.84356958    5.30332126    1.85696108     
       9.91203397    8.99719849    1.90851548     
       5.64912130   11.45638889    1.84575453     
       3.52065164   12.68771401    1.86090436     
       7.77689867   10.23137211    1.87810733     
       2.81157953   11.44897838    1.86271099     
       9.20345635    7.76135346    1.87025312     
       7.07012325    8.99423629    1.84330131     
       4.94370689   10.22496804    1.83288802     
       7.77812519    7.76603724    1.85097529     
       9.90812336    6.54111030    1.88279196     
       5.65121771    8.99965606    1.83218112     
       3.51670384   10.23144196    1.84957541     
       1.38509859   11.45195166    1.90112372     
       7.07239723    6.53543917    1.85673206     
      -3.58386993   12.68397168    1.89876359     
       4.94269626    7.76068316    1.85026264     
       0.68086273   10.23019749    1.96332041     
       2.80962053    8.99437116    1.88785563     
       3.51860901    7.76745748    1.88913080     
       7.78074905    5.30847369    1.88299049     
      -2.87465646   11.45795672    1.95223610     
       5.64541552    6.54117465    1.86308801     
       1.39476956    8.99868923    1.96461346     
      -0.74444847   10.24072484    2.02826334     
       0.70132691    7.76875396    2.08388767     
      -1.45929955    9.01304762    2.15817619     
      -3.57949334   10.22627335    1.98066897     
      -5.71092012   11.45085612    1.89884458     
       4.93435662    5.30382180    1.90567057     
       2.81380056    6.54010726    1.96769724     
       3.52405061    5.30513834    1.97051945     
      -5.00908693   10.23036740    1.92725190     
       5.64683228    4.07288238    1.90725925     
       1.40277812    6.55632105    2.08396007     
      -0.73320847    7.78638768    2.28383822     
      -5.71536099    8.99692836    1.91619380     
       2.82196592    4.06586119    2.04716675     
       0.69905105    5.30489697    2.28244880     
      -1.47943133    6.54797998    2.41134461     
      -7.83710186   10.22571814    1.92478338     
      -0.74271547    5.27334595    2.40014624     
      -7.12994036    8.99647272    1.90447096     
       3.51958594    2.84692689    1.98162507     
       1.40049691    4.06087028    2.18162355     
      -1.45834483    4.04856653    2.15115655     
      -7.83924437    7.76050770    1.89415271     
      -9.97256028    8.99141491    1.97034743     
       0.68329459    2.83261076    2.09459115     
       1.39062184    1.61683475    1.99590645     
      -0.74943162    2.83806616    2.04927291     
      -9.26487403    7.76479970    1.91188782     
      -9.97039426    6.53444488    1.89020152     
     -12.10339627    7.75701300    1.93292133     
      -1.45355489    1.61257237    1.94221116     
       1.38574998   13.91921231    1.90111937     
      12.04095173    7.76170880    1.91568090     
       0.67468725   12.68381333    1.90141130     
      -1.44942649   13.91680511    1.89564782     
      -0.73860119   12.68978658    1.91272440     
      -1.45088826   11.45427634    1.96232551     
      -0.02316063    7.77499985    6.72819060     
      -1.48129473    5.70984147    6.38032256     
       0.20971415    5.13790618    4.36471096     
       1.02213335    5.45134726    6.78998673     
      -1.08900098    7.37309320    4.36724413     
       0.23808432    9.58615412    7.11322101     
       0.65671953   10.52199698    6.01002225     
       0.72716809   11.33914152    6.54964141     
