Pt5O-C72
1.0
    12.782535    7.3800000   0.000000
   -12.782535    7.3800000   0.000000
     0.000000    0.0000000  20.000000 
   C    Pt   O
   72    5   1
Cartesian
      -7.06713000    6.54294000    1.79901000     
      -7.77660000    7.77143000    1.82562000     
      -7.06231000    9.00870000    1.82943000     
      -9.19102000    7.77450000    1.87799000     
      -7.76997000   10.23360000    1.88618000     
      -9.90320000    9.00545000    1.95852000     
       5.71949000    4.08149000    1.89248000     
       3.58328000    2.85369000    1.97044000     
       1.46026000    1.62573000    2.02472000     
       2.87912000    4.07546000    2.09402000     
       5.00700000    5.31687000    1.94056000     
       0.75271000    2.84486000    2.12177000     
       5.71361000    6.54250000    1.91600000     
       1.46814000    4.06703000    2.22012000     
      -0.67682000    2.84892000    2.09364000     
       3.59559000    5.31675000    2.05766000     
      -1.39285000    4.08111000    2.08203000     
       5.00365000    7.76991000    1.92753000     
       2.90554000    6.54068000    2.16815000     
       0.74049000    5.29541000    2.40701000     
       3.59606000    7.76762000    2.03470000     
       5.71631000    9.00650000    1.87293000     
       1.48300000    6.53554000    2.45961000     
      -0.69569000    5.30869000    2.20168000     
      -2.80402000    4.08108000    1.96674000     
       2.88093000    9.01074000    2.01860000     
       5.01044000   10.23102000    1.85320000     
       0.74653000    7.80668000    2.41220000     
      -3.51611000    5.30947000    1.90355000     
      -1.40029000    6.51996000    2.12580000     
      -0.70073000    7.77430000    2.27272000     
       3.58310000   10.23251000    1.90379000     
      -7.06410000    4.08163000    1.81610000     
       1.47354000    9.02761000    2.12432000     
      -2.80759000    6.53419000    1.94813000     
      -4.93526000    5.31410000    1.83046000     
      -3.51758000    7.76939000    1.87596000     
      -5.63878000    6.53916000    1.80259000     
      -7.77460000    5.31525000    1.81055000     
       2.87457000   11.46338000    1.89503000     
       0.76948000   10.24293000    2.06997000     
      -1.41221000    9.00460000    2.08360000     
      -0.67502000   10.23578000    2.19514000     
      -9.19507000    5.31934000    1.84919000     
       1.46509000   11.46897000    1.97240000     
      -2.81070000    9.00814000    1.92514000     
      -4.92596000    7.77036000    1.81464000     
      -9.90154000    6.54269000    1.88391000     
      -1.39574000   11.47461000    2.22617000     
      -3.51623000   10.24129000    1.92567000     
      -5.64237000    9.00855000    1.81443000     
       0.74777000   12.70512000    2.00733000     
      -4.93916000   10.23627000    1.85603000     
     -11.32809000    6.54414000    1.95612000     
      -0.66687000   12.71257000    2.11725000     
      -2.82109000   11.46487000    2.06961000     
      -5.65015000   11.46513000    1.88277000     
     -12.03886000    7.77314000    2.00706000     
      -1.37970000   13.92785000    2.07117000     
      -3.52091000   12.69855000    2.00999000     
       9.97248000    6.54533000    2.03443000     
       7.84370000    5.31850000    1.92528000     
      -0.66679000    0.39590000    2.04077000     
      -1.38220000    1.63084000    2.03937000     
       9.26525000    7.77077000    1.97436000     
       7.13864000    6.54365000    1.90851000     
      -2.80538000    1.62817000    1.98545000     
       7.84912000    7.77317000    1.91751000     
      -3.51283000    2.84863000    1.93358000     
       7.13646000    9.00395000    1.87654000     
      -4.93931000    2.85218000    1.87067000     
      -5.64786000    4.07832000    1.82809000     
      -0.11029000    8.05458000    4.35976000     
      -1.24288000    9.34156000    6.52057000     
       0.70532000    7.87889000    6.78247000     
      -0.98057000   10.50286000    4.30998000     
       1.26715000    5.87426000    4.47566000     
       1.52176000    6.18725000    6.37653000     
