Pt5(OOH)2-C72
1.0
    12.782535    7.3800000   0.000000
   -12.782535    7.3800000   0.000000
     0.000000    0.0000000  20.000000 
   C    Pt   O   H
   72    5   4   2
Cartesian
       3.57998000    5.27639000    2.15170000     
       2.87509000    6.51019000    2.22457000     
       1.44998000    6.52631000    2.34515000     
       3.58164000    7.74237000    2.08929000     
       0.71770000    7.75866000    2.13001000     
       2.86018000    8.97119000    2.01570000     
      -0.68280000    7.76004000    2.11927000     
       1.43634000    8.97357000    2.00854000     
       3.56635000   10.19161000    1.95124000     
       0.72532000   10.19648000    1.92145000     
      -1.40160000    8.97283000    1.99605000     
       2.85052000   11.42576000    1.90574000     
      -2.82705000    8.97018000    2.00111000     
       1.44349000   11.42731000    1.88475000     
       3.56892000   12.65933000    1.90847000     
      -0.69118000   10.19671000    1.91568000     
      -9.92682000    6.50575000    1.90694000     
      -3.53312000   10.19133000    1.93799000     
      -1.40938000   11.42715000    1.87493000     
       0.72465000   12.66019000    1.86626000     
      -2.81681000   11.42565000    1.89106000     
      -4.95485000   10.19278000    1.95145000     
      -0.69061000   12.65991000    1.86088000     
       1.43849000   13.88701000    1.88900000     
      -9.20981000    7.73830000    1.93922000     
      -3.53523000   12.65858000    1.89124000     
      -5.66933000   11.42622000    1.95126000     
      -1.40483000   13.88660000    1.87618000     
      -9.92569000    8.96965000    1.98169000     
     -12.06227000    7.73740000    1.92763000     
      12.09602000    7.73707000    1.91952000     
       7.83050000    5.27875000    1.92912000     
       5.70551000    4.04374000    1.99347000     
       9.96052000    6.50514000    1.88626000     
       1.43883000    1.59197000    1.99981000     
       3.56864000    2.81470000    2.01803000     
       0.73181000    2.81142000    2.11479000     
       2.85924000    4.03777000    2.12309000     
       4.98718000    5.27979000    2.05012000     
       7.11745000    6.50444000    1.95208000     
       9.24329000    7.73719000    1.91235000     
      -1.40563000    1.59133000    1.97962000     
       9.95976000    8.96874000    1.95055000     
       5.70165000    6.50557000    2.01483000     
       7.83438000    7.73728000    1.93241000     
      -0.69846000    2.81149000    2.09985000     
       1.45622000    4.02837000    2.22694000     
       4.98625000    7.73722000    2.02414000     
      -3.53561000    2.81343000    1.98337000     
      -1.42394000    4.02667000    2.19483000     
       0.75078000    5.26101000    2.47311000     
       7.11821000    8.96932000    1.94895000     
      -0.72239000    5.26082000    2.45545000     
       5.69996000    8.97146000    1.97063000     
       7.82502000   10.19448000    1.96301000     
      -2.82598000    4.03566000    2.08672000     
      -1.41594000    6.52608000    2.31951000     
       4.98809000   10.19249000    1.95561000     
      -5.67201000    4.04278000    1.98050000     
      -3.54775000    5.27383000    2.13073000     
      -4.95370000    5.27878000    2.03782000     
      -2.84195000    6.50925000    2.21664000     
       5.70256000   11.42591000    1.95245000     
      -7.79700000    5.27907000    1.94122000     
      -5.66855000    6.50567000    2.01588000     
      -3.54900000    7.74375000    2.08174000     
      -7.08378000    6.50501000    1.96445000     
      -4.95330000    7.73779000    2.02382000     
      -7.80099000    7.73808000    1.95411000     
      -5.66713000    8.97214000    1.97449000     
      -7.08547000    8.97003000    1.96655000     
      -7.79219000   10.19549000    1.98661000     
       0.89177000    7.23997000    6.74000000     
      -0.07531000    4.91038000    6.46006000     
      -1.35560000    5.98845000    4.39487000     
      -1.60251000    6.87604000    6.85336000     
       1.22936000    6.03015000    4.43492000     
      -3.12247000    7.99994000    7.10068000     
      -3.40992000    8.24328000    8.54081000     
       2.03129000    8.68358000    7.12363000     
       2.32456000    9.67562000    6.04711000     
       2.50981000   10.45273000    6.61775000     
      -3.74946000    7.36480000    8.81713000     
