Pt5-C72
1.0
    12.782535    7.3800000   0.000000
   -12.782535    7.3800000   0.000000
     0.000000    0.0000000  20.000000 
   C    Pt
   72    5
Cartesian
      -9.08001000    5.25681000    1.79817000     
      -9.78962000    6.48664000    1.83158000     
      -9.07610000    7.72445000    1.84494000     
     -11.20282000    6.48937000    1.88211000     
      -9.78100000    8.94590000    1.91168000     
     -11.91442000    7.72078000    1.96414000     
       3.70762000    2.79585000    1.92635000     
       1.57124000    1.56689000    1.98919000     
      -0.55411000    0.34100000    2.01919000     
       0.86695000    2.78878000    2.11450000     
       2.99529000    4.03130000    1.98107000     
      -1.26067000    1.55597000    2.10739000     
       3.69885000    5.25541000    1.95402000     
      -0.54566000    2.77923000    2.21408000     
      -2.69107000    1.55946000    2.07316000     
       1.58018000    4.03093000    2.09738000     
      -3.40585000    2.79147000    2.05633000     
       2.98892000    6.48498000    1.96001000     
       0.89195000    5.25285000    2.20836000     
      -1.27261000    4.00213000    2.39008000     
       1.58238000    6.48265000    2.06792000     
       3.70064000    7.72218000    1.88820000     
      -0.53330000    5.24680000    2.48427000     
      -2.70681000    4.02058000    2.17132000     
      -4.81531000    2.79448000    1.94245000     
       0.87055000    7.72695000    2.02946000     
       2.99812000    8.94415000    1.86208000     
      -1.26557000    6.52057000    2.38479000     
      -5.52612000    4.02470000    1.88302000     
      -3.41000000    5.23024000    2.09626000     
      -2.70910000    6.48513000    2.24972000     
       1.57023000    8.94595000    1.91299000     
       3.70655000   10.17646000    1.81551000     
      -0.54142000    7.74330000    2.11333000     
      -4.81899000    5.24799000    1.93001000     
      -6.94898000    4.03027000    1.81667000     
      -5.53015000    6.48508000    1.87365000     
      -7.65021000    5.25255000    1.79711000     
       2.99681000   11.41126000    1.80986000     
       0.86115000   10.17846000    1.89818000     
      -1.24227000    8.95657000    2.06793000     
      -3.42235000    7.72001000    2.08994000     
      -2.68639000    8.95196000    2.22667000     
       1.57289000   11.41519000    1.85108000     
      -0.54727000   10.18380000    1.97807000     
      -4.82413000    7.72488000    1.93842000     
      -6.93691000    6.48594000    1.81650000     
       0.86879000   12.63601000    1.88604000     
      -3.41055000   10.19216000    2.25043000     
      -5.52747000    8.95487000    1.94793000     
      -7.65296000    7.72458000    1.82887000     
      -1.26419000   11.42080000    2.01874000     
      -6.95205000    8.94963000    1.87906000     
      -0.55888000   12.63748000    1.96013000     
      -2.68209000   11.43041000    2.12914000     
      -4.83257000   10.18028000    2.09281000     
      -7.66349000   10.17941000    1.91327000     
      -1.27032000   13.86705000    2.00170000     
      -3.39228000   12.64015000    2.07223000     
      -5.53322000   11.41496000    2.02923000     
       7.95694000    5.25807000    2.04136000     
       5.82806000    4.03402000    1.95258000     
      10.10287000    6.48983000    2.03086000     
       9.38791000    7.72417000    2.02289000     
       7.25019000    6.48448000    1.97512000     
       5.12498000    5.25609000    1.93593000     
       7.96190000    7.72260000    1.97173000     
       5.83561000    6.48736000    1.92909000     
       7.25745000    8.93950000    1.91558000     
       5.12369000    7.71931000    1.88194000     
       5.82942000    8.94457000    1.86184000     
       5.12152000   10.17297000    1.81923000     
      -2.14741000    6.83161000    4.34503000     
      -2.83399000    7.91631000    6.54786000     
      -0.84710000    6.25592000    6.51488000     
      -2.95817000    9.22073000    4.34769000     
      -0.92081000    4.65540000    4.50396000     
