Pt5O-C72
1.0
    12.782535    7.3800000   0.000000
   -12.782535    7.3800000   0.000000
     0.000000    0.0000000  20.000000 
   C    Pt   O
   72    5   1
Cartesian
      -7.08094000    6.54324000    1.85562000     
      -7.79722000    7.78108000    1.83041000     
      -7.08575000    9.01160000    1.79268000     
      -9.20796000    7.77971000    1.87273000     
      -7.79278000   10.23584000    1.79121000     
      -9.92039000    9.01090000    1.85946000     
       5.70222000    4.09201000    1.80097000     
       3.56854000    2.85267000    1.81774000     
       1.43484000    1.62968000    1.92962000     
       2.85531000    4.08964000    1.84904000     
       4.99253000    5.32316000    1.83805000     
       0.72826000    2.84692000    1.97664000     
       5.69759000    6.54539000    1.87947000     
       1.44743000    4.08522000    1.92335000     
      -0.68501000    2.83835000    2.10264000     
       3.56553000    5.32106000    1.86746000     
      -1.41330000    4.07867000    2.23748000     
       4.98279000    7.78253000    1.95003000     
       2.86269000    6.53994000    1.97726000     
       0.75266000    5.31088000    2.01340000     
       3.57760000    7.78352000    2.03446000     
       5.69451000    9.01194000    1.96380000     
       1.45386000    6.52254000    2.05580000     
      -0.68937000    5.31830000    2.20030000     
      -2.83700000    4.08978000    2.09762000     
       2.88276000    9.01203000    2.18057000     
       4.98879000   10.23492000    1.99470000     
       0.72522000    7.74439000    2.34694000     
      -3.53492000    5.31325000    1.95439000     
      -1.42943000    6.54636000    2.06008000     
      -0.71167000    7.78385000    2.20801000     
       3.57618000   10.23502000    2.09678000     
      -7.08000000    4.09222000    1.94865000     
       1.46082000    9.01759000    2.43079000     
      -2.82744000    6.54312000    1.92848000     
      -4.95831000    5.31865000    1.89681000     
      -3.53853000    7.78391000    1.86734000     
      -5.66163000    6.54256000    1.84024000     
      -7.78842000    5.32118000    1.92708000     
       2.85769000   11.47703000    2.11885000     
       0.71805000   10.25359000    2.36984000     
      -1.41603000    9.03436000    2.07058000     
      -0.71322000   10.24320000    2.15633000     
      -9.21703000    5.32213000    1.99689000     
       1.44824000   11.48687000    2.20687000     
      -2.82675000    9.01988000    1.91818000     
      -4.94334000    7.78215000    1.81945000     
      -9.92215000    6.54554000    1.96189000     
      -1.41387000   11.47433000    2.05478000     
      -3.53466000   10.24190000    1.88208000     
      -5.65780000    9.01465000    1.79749000     
       0.73339000   12.70849000    2.10497000     
      -4.95429000   10.23755000    1.81780000     
       1.44106000   13.92582000    2.01396000     
      -0.69752000   12.70585000    2.07321000     
      -2.82169000   11.47309000    1.94564000     
      -5.66814000   11.47474000    1.81848000     
     -12.05949000    7.78008000    1.98800000     
      -1.40183000   13.92156000    2.02635000     
      -3.53205000   12.70623000    1.92486000     
       9.95760000    6.54416000    1.98193000     
       7.82397000    5.32313000    1.86836000     
      -0.68469000    0.39779000    2.02527000     
      -1.39759000    1.62659000    2.06455000     
       9.24377000    7.78231000    1.98958000     
       7.11707000    6.54712000    1.88889000     
       9.95300000    9.00993000    2.05064000     
       7.83163000    7.78067000    1.94516000     
      -3.53963000    2.85242000    2.04402000     
       7.11923000    9.01075000    1.95523000     
       7.82415000   10.23383000    1.97610000     
      -5.67056000    4.08865000    1.93827000     
      -0.10225000    7.42364000    4.29205000     
       0.04662000    6.92717000    6.70078000     
       1.15283000    9.09171000    6.91577000     
      -0.94355000    4.97729000    4.31679000     
       1.07403000    9.66199000    4.48748000     
      -0.74769000    5.24009000    6.23458000     
